param set_len = 26;
param target := 16473237;
param values := [1] 1809949 [2] 1457770 [3] 1189788 [4] 1428707 [5] 648289 [6] 1820134 [7] 1822535 [8] 946004 [9] 1228757 [10] 1632308 [11] 1349860 [12] 679432 [13] 875313 [14] 1040520 [15] 1526406 [16] 1012371 [17] 1190032 [18] 1551346 [19] 732115 [20] 1716123 [21] 1367748 [22] 492141 [23] 826448 [24] 1614506 [25] 363146 [26] 1799517 ;
